80 63 54 96 42 61 44 69 87 36 18 3 49 25 16 24 60 
46 57 62 32 91 78 4 71 68 93 14 100 59 81 10 
45 27 94 90 
23 89 95 
82 99 41 5 66 
29 72 53 98 83 
76 35 6 74 43 
7 19 84 13 
31 39 21 75 28 
17 51 1 73 
12 15 8 26 55 22 
92 67 56 33 88 85 9 47 37 70 34 58 2 
65 11 64 79 52 50 38 48 77 86 20 30 40 97 
